p cnf 175 593
c p weight 70 -1 0
c p weight -70 1 0
c p weight 72 6.12323399573676603586882014729198302312846062338790031898128063403419218957424163818359375E-17 0
c p weight -72 1 0
c p weight 73 1 0
c p weight -73 1 0
c p weight 74 -1 0
c p weight -74 1 0
c p weight 76 -1 0
c p weight -76 1 0
c p weight 79 -1 0
c p weight -79 1 0
c p weight 82 -1 0
c p weight -82 1 0
c p weight 85 -1 0
c p weight -85 1 0
c p weight 88 -1 0
c p weight -88 1 0
c p weight 91 -1 0
c p weight -91 1 0
c p weight 94 -1 0
c p weight -94 1 0
c p weight 97 -1 0
c p weight -97 1 0
c p weight 100 -1 0
c p weight -100 1 0
c p weight 103 -1 0
c p weight -103 1 0
c p weight 106 -1 0
c p weight -106 1 0
c p weight 109 -1 0
c p weight -109 1 0
c p weight 112 -1 0
c p weight -112 1 0
c p weight 115 -1 0
c p weight -115 1 0
c p weight 118 -1 0
c p weight -118 1 0
c p weight 121 -1 0
c p weight -121 1 0
c p weight 124 -1 0
c p weight -124 1 0
c p weight 127 -1 0
c p weight -127 1 0
c p weight 130 -1 0
c p weight -130 1 0
c p weight 133 -1 0
c p weight -133 1 0
c p weight 136 -1 0
c p weight -136 1 0
c p weight 139 -1 0
c p weight -139 1 0
c p weight 142 -1 0
c p weight -142 1 0
c p weight 145 -1 0
c p weight -145 1 0
c p weight 148 -1 0
c p weight -148 1 0
c p weight 151 -1 0
c p weight -151 1 0
c p weight 154 -1 0
c p weight -154 1 0
c p weight 157 -1 0
c p weight -157 1 0
c p weight 160 -1 0
c p weight -160 1 0
c p weight 163 -1 0
c p weight -163 1 0
c p weight 166 -1 0
c p weight -166 1 0
c p weight 169 -1 0
c p weight -169 1 0
c p weight 172 -1 0
c p weight -172 1 0
c p weight 175 -1 0
c p weight -175 1 0
-67 0
-65 0
-63 0
-61 0
-59 0
-57 0
-55 0
-53 0
-51 0
-49 0
-47 0
-45 0
-43 0
-41 0
-39 0
-37 0
-35 0
-33 0
-31 0
-29 0
-27 0
-25 0
-23 0
-21 0
-19 0
-17 0
-15 0
-13 0
-11 0
-9 0
-7 0
-5 0
-3 0
-1 0
69 67 -68 0
69 -67 68 0
-69 67 68 0
-69 -67 -68 0
-70 67 0
-70 68 0
70 -67 -68 0
71 -67 69 0
-71 67 69 0
-72 69 0
71 -72 -67 0
-71 -72 67 0
71 72 67 -69 0
-71 72 -67 -69 0
-73 69 0
71 -73 67 0
-71 -73 -67 0
71 73 -67 -69 0
-71 73 67 -69 0
-74 71 0
-74 69 0
-74 -67 0
74 -71 67 -69 0
75 71 -69 0
75 -71 69 0
-75 71 69 0
-75 -71 -69 0
-76 71 0
-76 69 0
76 -71 -69 0
77 71 -65 0
77 -71 65 0
-77 71 65 0
-77 -71 -65 0
78 75 -66 0
78 -75 66 0
-78 75 66 0
-78 -75 -66 0
-79 71 0
-79 66 0
-79 65 -75 0
-79 -65 75 0
79 -71 65 75 -66 0
79 -71 -65 -75 -66 0
80 77 -63 0
80 -77 63 0
-80 77 63 0
-80 -77 -63 0
81 66 -64 0
81 -66 64 0
-81 66 64 0
-81 -66 -64 0
-82 77 0
-82 64 0
-82 63 -66 0
-82 -63 66 0
82 -77 63 66 -64 0
82 -77 -63 -66 -64 0
83 80 -61 0
83 -80 61 0
-83 80 61 0
-83 -80 -61 0
84 64 -62 0
84 -64 62 0
-84 64 62 0
-84 -64 -62 0
-85 80 0
-85 62 0
-85 61 -64 0
-85 -61 64 0
85 -80 61 64 -62 0
85 -80 -61 -64 -62 0
86 83 -59 0
86 -83 59 0
-86 83 59 0
-86 -83 -59 0
87 62 -60 0
87 -62 60 0
-87 62 60 0
-87 -62 -60 0
-88 83 0
-88 60 0
-88 59 -62 0
-88 -59 62 0
88 -83 59 62 -60 0
88 -83 -59 -62 -60 0
89 86 -57 0
89 -86 57 0
-89 86 57 0
-89 -86 -57 0
90 60 -58 0
90 -60 58 0
-90 60 58 0
-90 -60 -58 0
-91 86 0
-91 58 0
-91 57 -60 0
-91 -57 60 0
91 -86 57 60 -58 0
91 -86 -57 -60 -58 0
92 89 -55 0
92 -89 55 0
-92 89 55 0
-92 -89 -55 0
93 58 -56 0
93 -58 56 0
-93 58 56 0
-93 -58 -56 0
-94 89 0
-94 56 0
-94 55 -58 0
-94 -55 58 0
94 -89 55 58 -56 0
94 -89 -55 -58 -56 0
95 92 -53 0
95 -92 53 0
-95 92 53 0
-95 -92 -53 0
96 56 -54 0
96 -56 54 0
-96 56 54 0
-96 -56 -54 0
-97 92 0
-97 54 0
-97 53 -56 0
-97 -53 56 0
97 -92 53 56 -54 0
97 -92 -53 -56 -54 0
98 95 -51 0
98 -95 51 0
-98 95 51 0
-98 -95 -51 0
99 54 -52 0
99 -54 52 0
-99 54 52 0
-99 -54 -52 0
-100 95 0
-100 52 0
-100 51 -54 0
-100 -51 54 0
100 -95 51 54 -52 0
100 -95 -51 -54 -52 0
101 98 -49 0
101 -98 49 0
-101 98 49 0
-101 -98 -49 0
102 52 -50 0
102 -52 50 0
-102 52 50 0
-102 -52 -50 0
-103 98 0
-103 50 0
-103 49 -52 0
-103 -49 52 0
103 -98 49 52 -50 0
103 -98 -49 -52 -50 0
104 101 -47 0
104 -101 47 0
-104 101 47 0
-104 -101 -47 0
105 50 -48 0
105 -50 48 0
-105 50 48 0
-105 -50 -48 0
-106 101 0
-106 48 0
-106 47 -50 0
-106 -47 50 0
106 -101 47 50 -48 0
106 -101 -47 -50 -48 0
107 104 -45 0
107 -104 45 0
-107 104 45 0
-107 -104 -45 0
108 48 -46 0
108 -48 46 0
-108 48 46 0
-108 -48 -46 0
-109 104 0
-109 46 0
-109 45 -48 0
-109 -45 48 0
109 -104 45 48 -46 0
109 -104 -45 -48 -46 0
110 107 -43 0
110 -107 43 0
-110 107 43 0
-110 -107 -43 0
111 46 -44 0
111 -46 44 0
-111 46 44 0
-111 -46 -44 0
-112 107 0
-112 44 0
-112 43 -46 0
-112 -43 46 0
112 -107 43 46 -44 0
112 -107 -43 -46 -44 0
113 110 -41 0
113 -110 41 0
-113 110 41 0
-113 -110 -41 0
114 44 -42 0
114 -44 42 0
-114 44 42 0
-114 -44 -42 0
-115 110 0
-115 42 0
-115 41 -44 0
-115 -41 44 0
115 -110 41 44 -42 0
115 -110 -41 -44 -42 0
116 113 -39 0
116 -113 39 0
-116 113 39 0
-116 -113 -39 0
117 42 -40 0
117 -42 40 0
-117 42 40 0
-117 -42 -40 0
-118 113 0
-118 40 0
-118 39 -42 0
-118 -39 42 0
118 -113 39 42 -40 0
118 -113 -39 -42 -40 0
119 116 -37 0
119 -116 37 0
-119 116 37 0
-119 -116 -37 0
120 40 -38 0
120 -40 38 0
-120 40 38 0
-120 -40 -38 0
-121 116 0
-121 38 0
-121 37 -40 0
-121 -37 40 0
121 -116 37 40 -38 0
121 -116 -37 -40 -38 0
122 119 -35 0
122 -119 35 0
-122 119 35 0
-122 -119 -35 0
123 38 -36 0
123 -38 36 0
-123 38 36 0
-123 -38 -36 0
-124 119 0
-124 36 0
-124 35 -38 0
-124 -35 38 0
124 -119 35 38 -36 0
124 -119 -35 -38 -36 0
125 122 -33 0
125 -122 33 0
-125 122 33 0
-125 -122 -33 0
126 36 -34 0
126 -36 34 0
-126 36 34 0
-126 -36 -34 0
-127 122 0
-127 34 0
-127 33 -36 0
-127 -33 36 0
127 -122 33 36 -34 0
127 -122 -33 -36 -34 0
128 125 -31 0
128 -125 31 0
-128 125 31 0
-128 -125 -31 0
129 34 -32 0
129 -34 32 0
-129 34 32 0
-129 -34 -32 0
-130 125 0
-130 32 0
-130 31 -34 0
-130 -31 34 0
130 -125 31 34 -32 0
130 -125 -31 -34 -32 0
131 128 -29 0
131 -128 29 0
-131 128 29 0
-131 -128 -29 0
132 32 -30 0
132 -32 30 0
-132 32 30 0
-132 -32 -30 0
-133 128 0
-133 30 0
-133 29 -32 0
-133 -29 32 0
133 -128 29 32 -30 0
133 -128 -29 -32 -30 0
134 131 -27 0
134 -131 27 0
-134 131 27 0
-134 -131 -27 0
135 30 -28 0
135 -30 28 0
-135 30 28 0
-135 -30 -28 0
-136 131 0
-136 28 0
-136 27 -30 0
-136 -27 30 0
136 -131 27 30 -28 0
136 -131 -27 -30 -28 0
137 134 -25 0
137 -134 25 0
-137 134 25 0
-137 -134 -25 0
138 28 -26 0
138 -28 26 0
-138 28 26 0
-138 -28 -26 0
-139 134 0
-139 26 0
-139 25 -28 0
-139 -25 28 0
139 -134 25 28 -26 0
139 -134 -25 -28 -26 0
140 137 -23 0
140 -137 23 0
-140 137 23 0
-140 -137 -23 0
141 26 -24 0
141 -26 24 0
-141 26 24 0
-141 -26 -24 0
-142 137 0
-142 24 0
-142 23 -26 0
-142 -23 26 0
142 -137 23 26 -24 0
142 -137 -23 -26 -24 0
143 140 -21 0
143 -140 21 0
-143 140 21 0
-143 -140 -21 0
144 24 -22 0
144 -24 22 0
-144 24 22 0
-144 -24 -22 0
-145 140 0
-145 22 0
-145 21 -24 0
-145 -21 24 0
145 -140 21 24 -22 0
145 -140 -21 -24 -22 0
146 143 -19 0
146 -143 19 0
-146 143 19 0
-146 -143 -19 0
147 22 -20 0
147 -22 20 0
-147 22 20 0
-147 -22 -20 0
-148 143 0
-148 20 0
-148 19 -22 0
-148 -19 22 0
148 -143 19 22 -20 0
148 -143 -19 -22 -20 0
149 146 -17 0
149 -146 17 0
-149 146 17 0
-149 -146 -17 0
150 20 -18 0
150 -20 18 0
-150 20 18 0
-150 -20 -18 0
-151 146 0
-151 18 0
-151 17 -20 0
-151 -17 20 0
151 -146 17 20 -18 0
151 -146 -17 -20 -18 0
152 149 -15 0
152 -149 15 0
-152 149 15 0
-152 -149 -15 0
153 18 -16 0
153 -18 16 0
-153 18 16 0
-153 -18 -16 0
-154 149 0
-154 16 0
-154 15 -18 0
-154 -15 18 0
154 -149 15 18 -16 0
154 -149 -15 -18 -16 0
155 152 -13 0
155 -152 13 0
-155 152 13 0
-155 -152 -13 0
156 16 -14 0
156 -16 14 0
-156 16 14 0
-156 -16 -14 0
-157 152 0
-157 14 0
-157 13 -16 0
-157 -13 16 0
157 -152 13 16 -14 0
157 -152 -13 -16 -14 0
158 155 -11 0
158 -155 11 0
-158 155 11 0
-158 -155 -11 0
159 14 -12 0
159 -14 12 0
-159 14 12 0
-159 -14 -12 0
-160 155 0
-160 12 0
-160 11 -14 0
-160 -11 14 0
160 -155 11 14 -12 0
160 -155 -11 -14 -12 0
161 158 -9 0
161 -158 9 0
-161 158 9 0
-161 -158 -9 0
162 12 -10 0
162 -12 10 0
-162 12 10 0
-162 -12 -10 0
-163 158 0
-163 10 0
-163 9 -12 0
-163 -9 12 0
163 -158 9 12 -10 0
163 -158 -9 -12 -10 0
164 161 -7 0
164 -161 7 0
-164 161 7 0
-164 -161 -7 0
165 10 -8 0
165 -10 8 0
-165 10 8 0
-165 -10 -8 0
-166 161 0
-166 8 0
-166 7 -10 0
-166 -7 10 0
166 -161 7 10 -8 0
166 -161 -7 -10 -8 0
167 164 -5 0
167 -164 5 0
-167 164 5 0
-167 -164 -5 0
168 8 -6 0
168 -8 6 0
-168 8 6 0
-168 -8 -6 0
-169 164 0
-169 6 0
-169 5 -8 0
-169 -5 8 0
169 -164 5 8 -6 0
169 -164 -5 -8 -6 0
170 167 -3 0
170 -167 3 0
-170 167 3 0
-170 -167 -3 0
171 6 -4 0
171 -6 4 0
-171 6 4 0
-171 -6 -4 0
-172 167 0
-172 4 0
-172 3 -6 0
-172 -3 6 0
172 -167 3 6 -4 0
172 -167 -3 -6 -4 0
173 170 -1 0
173 -170 1 0
-173 170 1 0
-173 -170 -1 0
174 4 -2 0
174 -4 2 0
-174 4 2 0
-174 -4 -2 0
-175 170 0
-175 2 0
-175 1 -4 0
-175 -1 4 0
175 -170 1 4 -2 0
175 -170 -1 -4 -2 0
-173 0
-170 0
-174 0
-167 0
-171 0
-164 0
-168 0
-161 0
-165 0
-158 0
-162 0
-155 0
-159 0
-152 0
-156 0
-149 0
-153 0
-146 0
-150 0
-143 0
-147 0
-140 0
-144 0
-137 0
-141 0
-134 0
-138 0
-131 0
-135 0
-128 0
-132 0
-125 0
-129 0
-122 0
-126 0
-119 0
-123 0
-116 0
-120 0
-113 0
-117 0
-110 0
-114 0
-107 0
-111 0
-104 0
-108 0
-101 0
-105 0
-98 0
-102 0
-95 0
-99 0
-92 0
-96 0
-89 0
-93 0
-86 0
-90 0
-83 0
-87 0
-80 0
-84 0
-77 0
-81 0
-71 0
-78 0
